20
1 0 29
3 2 222
4 1 39
5 0 119
5 3 199
6 2 48
7 3 207
8 5 82
9 3 141
10 1 287
11 3 189
11 10 102
12 1 57
12 3 100
12 5 207
13 4 257
13 5 175
13 8 128
13 11 69
13 12 6
14 0 66
14 3 256
14 7 95
14 12 276
15 3 53
15 6 263
16 1 20
16 4 17
16 14 25
17 2 30
17 8 313
17 14 181
18 3 128
18 4 65
19 3 43
19 6 41
19 9 281
19 14 249
19 16 16
